\ This file has been generated by DOcplex
\ ENCODING=ISO-8859-1
\Problem name: random_problem.lp

Minimize
 obj: - 3 x0 + 3 x1 - x2 - 5 x3 + 7 x4 + x5 - 9 x6 + 9 x7 - 9 x8 - 8 x9 - 3 x10
      - 10 x11 + 10 x12 - 6 x13 + 5 x14 - x15 + 10 x17 - 10 x18 - 10 x19 - 6 x20
      - 3 x21 + 10 x22 + 6 x23 + [ 6 x0*x7 + 10 x0*x9 - 6 x0*x11 - 16 x0*x15
      - 18 x0*x17 + 8 x1*x8 - 12 x1*x11 - 10 x1*x17 - 20 x1*x18 + 6 x1*x22
      - 12 x2*x5 - 2 x2*x11 - 2 x2*x16 + 14 x2*x17 + 8 x2*x20 + 8 x3*x6
      + 4 x3*x10 + 2 x3*x11 - 10 x3*x19 + 6 x3*x20 - 16 x4*x9 + 10 x4*x15
      - 16 x4*x19 - 4 x4*x21 + 18 x4*x23 + 4 x5*x6 + 18 x5*x12 + 18 x5*x14
      + 14 x5*x21 + 4 x6*x18 + 12 x6*x19 - 12 x6*x22 + 18 x7*x8 + 12 x7*x10
      + 2 x7*x16 - 2 x7*x18 + 20 x8*x11 - 6 x8*x15 - 16 x8*x21 + 10 x9*x13
      - 18 x9*x15 - 6 x9*x18 - 16 x10*x13 - 8 x10*x20 - 6 x10*x21 + 8 x12*x18
      - 6 x12*x20 + 6 x12*x22 + 8 x12*x23 - 18 x13*x16 + 14 x13*x20 - 20 x13*x21
      - 6 x14*x15 + 12 x14*x17 + 14 x14*x19 + 8 x14*x22 - 18 x16*x22 - 8 x16*x23
      + 10 x17*x19 ]/2
Subject To
 c0: 2 x9 - x11 - x13 + 2 x19 - 2 x23 = 1
 c1: 2 x5 - x8 + 2 x11 - 2 x15 - x16 = 0
 c2: - x8 - 2 x9 + 2 x10 - x14 - 2 x21 = -2
 c3: 2 x1 + x3 + 2 x4 - 2 x15 + 2 x20 = -1

Bounds
 0 <= x0 <= 1
 0 <= x1 <= 1
 0 <= x2 <= 1
 0 <= x3 <= 1
 0 <= x4 <= 1
 0 <= x5 <= 1
 0 <= x6 <= 1
 0 <= x7 <= 1
 0 <= x8 <= 1
 0 <= x9 <= 1
 0 <= x10 <= 1
 0 <= x11 <= 1
 0 <= x12 <= 1
 0 <= x13 <= 1
 0 <= x14 <= 1
 0 <= x15 <= 1
 0 <= x16 <= 1
 0 <= x17 <= 1
 0 <= x18 <= 1
 0 <= x19 <= 1
 0 <= x20 <= 1
 0 <= x21 <= 1
 0 <= x22 <= 1
 0 <= x23 <= 1

Binaries
 x0 x1 x2 x3 x4 x5 x6 x7 x8 x9 x10 x11 x12 x13 x14 x15 x16 x17 x18 x19 x20 x21
 x22 x23
End
